10502 11670 11115
10234 9316 12367
10951 9911 11861
11918 9615 9549
11916 10069 8700
9430 11435 11889
11784 9765 10690
9730 11422 11846
9991 10950 12060
11257 9486 11598
9123 9488 12611
11514 9235 11240
8880 11122 12304
11841 10253 10076
10259 12171 10544
11224 10721 11189
10304 11688 11195
9797 9197 12578
11677 10414 10743
11839 10707 9227
9507 10683 12527
11147 11819 10010
9564 10825 12454
10455 10574 11899
9487 11923 11275
10336 11073 11723
11858 9749 10215
